presolving:
(round 1, fast)       493 del vars, 0 del conss, 0 add conss, 0 chg bounds, 0 chg sides, 0 chg coeffs, 0 upgd conss, 0 impls, 122264 clqs
(round 2, exhaustive) 493 del vars, 0 del conss, 0 add conss, 0 chg bounds, 0 chg sides, 0 chg coeffs, 122264 upgd conss, 0 impls, 122264 clqs
   (9.0s) probing: 51/242556 (0.0%) - 0 fixings, 0 aggregations, 0 implications, 0 bound changes
   (9.0s) probing aborted: 50/50 successive totally useless probings
   Deactivated symmetry handling methods, since SCIP was built without symmetry detector (SYM=none).
presolving (3 rounds: 3 fast, 2 medium, 2 exhaustive):
 493 deleted vars, 0 deleted constraints, 0 added constraints, 0 tightened bounds, 0 added holes, 0 changed sides, 0 changed coefficients
 0 implications, 122264 cliques
presolved problem has 242556 variables (242556 bin, 0 int, 0 impl, 0 cont) and 122264 constraints
 122264 constraints of type <setppc>
Presolving Time: 8.00

 time | node  | left  |LP iter|LP it/n|mem/heur|mdpt |vars |cons |rows |cuts |sepa|confs|strbr|  dualbound   | primalbound  |  gap   | compl. 
p12.0s|     1 |     0 |     0 |     - |  clique|   0 | 242k| 122k| 986 |   0 |  0 |   0 |   0 | 0.000000e+00 | 4.364638e+04 |    Inf | unknown
 34.0s|     1 |     0 |   893 |     - |  1565M |   0 | 242k| 122k| 986 |   0 |  0 |  12 |   0 | 3.030746e+04 | 4.364638e+04 |  44.01%| unknown
 34.0s|     1 |     0 |  1332 |     - |  1565M |   0 | 242k| 122k|1167 | 181 |  1 |  12 |   0 | 3.237928e+04 | 4.364638e+04 |  34.80%| unknown
 38.0s|     1 |     0 |  1408 |     - |  1607M |   0 | 242k| 122k|1204 | 218 |  2 |  12 |   0 | 3.264033e+04 | 4.364638e+04 |  33.72%| unknown
 41.0s|     1 |     0 |  1416 |     - |  1615M |   0 | 242k| 122k|1207 | 221 |  3 |  12 |   0 | 3.266864e+04 | 4.364638e+04 |  33.60%| unknown
 45.0s|     1 |     0 |  1434 |     - |  1618M |   0 | 242k| 122k|1216 | 230 |  4 |  12 |   0 | 3.266864e+04 | 4.364638e+04 |  33.60%| unknown
 50.0s|     1 |     0 |  1485 |     - |  1630M |   0 | 242k| 122k|1238 | 252 |  5 |  12 |   0 | 3.271798e+04 | 4.364638e+04 |  33.40%| unknown
 56.0s|     1 |     0 |  1503 |     - |  1657M |   0 | 242k| 122k|1245 | 259 |  6 |  12 |   0 | 3.272414e+04 | 4.364638e+04 |  33.38%| unknown
 62.0s|     1 |     0 |  1540 |     - |  1682M |   0 | 242k| 122k|1257 | 271 |  7 |  12 |   0 | 3.274327e+04 | 4.364638e+04 |  33.30%| unknown
 67.0s|     1 |     0 |  1567 |     - |  1709M |   0 | 242k| 122k|1269 | 283 |  8 |  12 |   0 | 3.280904e+04 | 4.364638e+04 |  33.03%| unknown
 70.0s|     1 |     0 |  1601 |     - |  1718M |   0 | 242k| 122k|1291 | 305 |  9 |  12 |   0 | 3.290491e+04 | 4.364638e+04 |  32.64%| unknown
 73.0s|     1 |     0 |  1643 |     - |  1722M |   0 | 242k| 122k|1309 | 323 | 10 |  12 |   0 | 3.296927e+04 | 4.364638e+04 |  32.39%| unknown
 78.0s|     1 |     0 |  1665 |     - |  1745M |   0 | 242k| 122k|1260 | 338 | 11 |  12 |   0 | 3.298650e+04 | 4.364638e+04 |  32.32%| unknown
 80.0s|     1 |     0 |  1708 |     - |  1746M |   0 | 242k| 122k|1277 | 355 | 12 |  12 |   0 | 3.299447e+04 | 4.364638e+04 |  32.28%| unknown
 82.0s|     1 |     0 |  1720 |     - |  1765M |   0 | 242k| 122k|1287 | 365 | 13 |  12 |   0 | 3.299447e+04 | 4.364638e+04 |  32.28%| unknown
 time | node  | left  |LP iter|LP it/n|mem/heur|mdpt |vars |cons |rows |cuts |sepa|confs|strbr|  dualbound   | primalbound  |  gap   | compl. 
 86.0s|     1 |     0 |  1766 |     - |  1783M |   0 | 242k| 122k|1300 | 378 | 14 |  12 |   0 | 3.299850e+04 | 4.364638e+04 |  32.27%| unknown
 87.0s|     1 |     0 |  1806 |     - |  1784M |   0 | 242k| 122k|1319 | 397 | 15 |  12 |   0 | 3.300392e+04 | 4.364638e+04 |  32.25%| unknown
 89.0s|     1 |     0 |  1833 |     - |  1789M |   0 | 242k| 122k|1328 | 406 | 16 |  12 |   0 | 3.300685e+04 | 4.364638e+04 |  32.23%| unknown
 92.0s|     1 |     0 |  1844 |     - |  1791M |   0 | 242k| 122k|1311 | 410 | 17 |  12 |   0 | 3.300685e+04 | 4.364638e+04 |  32.23%| unknown
 94.0s|     1 |     0 |  1861 |     - |  1796M |   0 | 242k| 122k|1316 | 415 | 18 |  12 |   0 | 3.300919e+04 | 4.364638e+04 |  32.22%| unknown
 96.0s|     1 |     0 |  1871 |     - |  1801M |   0 | 242k| 122k|1318 | 417 | 19 |  12 |   0 | 3.300966e+04 | 4.364638e+04 |  32.22%| unknown
 98.0s|     1 |     0 |  1911 |     - |  1806M |   0 | 242k| 122k|1327 | 426 | 20 |  12 |   0 | 3.302819e+04 | 4.364638e+04 |  32.15%| unknown
  100s|     1 |     0 |  1938 |     - |  1816M |   0 | 242k| 122k|1337 | 436 | 21 |  12 |   0 | 3.303983e+04 | 4.364638e+04 |  32.10%| unknown
  101s|     1 |     0 |  1951 |     - |  1816M |   0 | 242k| 122k|1343 | 442 | 22 |  12 |   0 | 3.304107e+04 | 4.364638e+04 |  32.10%| unknown
  103s|     1 |     0 |  1952 |     - |  1817M |   0 | 242k| 122k|1276 | 444 | 23 |  12 |   0 | 3.304107e+04 | 4.364638e+04 |  32.10%| unknown
L 144s|     1 |     0 |  5722 |     - |    alns|   0 | 242k| 122k|1276 | 444 | 25 |  12 |   0 | 3.304107e+04 | 4.189398e+04 |  26.79%| unknown
L 144s|     1 |     0 |  5722 |     - |    alns|   0 | 242k| 122k|1276 | 444 | 25 |  12 |   0 | 3.304107e+04 | 4.177760e+04 |  26.44%| unknown
  145s|     1 |     0 |  5722 |     - |  1836M |   0 | 242k| 122k|1276 | 444 | 25 |  12 |   0 | 3.304107e+04 | 4.177760e+04 |  26.44%| unknown
  155s|     1 |     2 |  5722 |     - |  1843M |   0 | 242k| 122k|1276 | 444 | 27 |  12 |  21 | 3.305338e+04 | 4.177760e+04 |  26.39%| unknown
* 419s|    30 |    16 |  6293 | 149.7 |strongbr|  22 | 242k| 122k|1210 | 477 |  2 |  12 | 580 | 3.305338e+04 | 3.314044e+04 |   0.26%| unknown
 time | node  | left  |LP iter|LP it/n|mem/heur|mdpt |vars |cons |rows |cuts |sepa|confs|strbr|  dualbound   | primalbound  |  gap   | compl. 
* 433s|    32 |    16 |  6315 | 140.7 |strongbr|  22 | 242k| 122k|1211 | 478 |  5 |  50 | 607 | 3.305338e+04 | 3.313915e+04 |   0.26%| unknown
* 435s|    33 |    12 |  6317 | 136.4 |strongbr|  22 | 242k| 122k|1211 | 478 |  2 |  50 | 610 | 3.305338e+04 | 3.312845e+04 |   0.23%| unknown
* 443s|    36 |    12 |  6326 | 125.0 |strongbr|  22 | 242k| 122k|1210 | 479 |  2 |  50 | 622 | 3.305338e+04 | 3.312019e+04 |   0.20%| unknown
* 445s|    37 |    10 |  6327 | 121.5 |strongbr|  22 | 242k| 122k|1210 | 479 |  2 |  55 | 626 | 3.305338e+04 | 3.311987e+04 |   0.20%| unknown
* 465s|    40 |     9 |  6404 | 114.2 |strongbr|  22 | 242k| 122k|1230 | 514 |  5 |  79 | 658 | 3.305338e+04 | 3.311970e+04 |   0.20%| unknown
r 473s|    41 |     8 |  6442 | 112.2 |rounding|  22 | 242k| 122k|1227 | 523 |  6 | 109 | 672 | 3.305338e+04 | 3.311938e+04 |   0.20%| unknown
* 526s|    49 |     8 |  6561 |  96.0 |strongbr|  22 | 242k| 122k|1212 | 527 |  3 | 145 | 794 | 3.305338e+04 | 3.311578e+04 |   0.19%|   2.28%
* 530s|    50 |     5 |  6573 |  94.3 |strongbr|  22 | 242k| 122k|1210 | 527 |  2 | 149 | 802 | 3.305338e+04 | 3.310763e+04 |   0.16%|   2.78%

SCIP Status        : solving was interrupted [gap limit reached]
Solving Time (sec) : 684.00
Solving Nodes      : 65
Primal Bound       : +3.31076328123194e+04 (12 solutions)
Dual Bound         : +3.31073870507568e+04
Gap                : 0.00 %
Trying to solve problem with DFJ2 version 2.0 Method...
684.0
Route:  [[0, 1], [1, 2], [2, 0], [3, 4], [4, 5], [5, 3], [6, 7], [7, 11], [8, 6], [9, 8], [10, 9], [11, 10], [12, 13], [13, 14], [14, 15], [15, 16], [16, 17], [17, 18], [18, 19], [19, 82], [20, 189], [21, 22], [22, 23], [23, 21], [24, 456], [25, 422], [26, 30], [27, 26], [28, 27], [29, 28], [30, 29], [31, 38], [32, 31], [33, 32], [34, 33], [35, 34], [36, 37], [37, 35], [38, 39], [39, 36], [40, 50], [41, 40], [42, 45], [43, 42], [44, 41], [45, 46], [46, 44], [47, 43], [48, 49], [49, 47], [50, 51], [51, 48], [52, 12], [53, 55], [54, 53], [55, 56], [56, 52], [57, 59], [58, 57], [59, 58], [60, 62], [61, 60], [62, 61], [63, 86], [64, 54], [65, 68], [66, 65], [67, 66], [68, 69], [69, 67], [70, 71], [71, 72], [72, 73], [73, 70], [74, 76], [75, 74], [76, 95], [77, 80], [78, 75], [79, 77], [80, 79], [81, 83], [82, 81], [83, 84], [84, 85], [85, 63], [86, 115], [87, 89], [88, 87], [89, 88], [90, 93], [91, 90], [92, 91], [93, 92], [94, 101], [95, 78], [96, 98], [97, 96], [98, 105], [99, 94], [100, 97], [101, 109], [102, 103], [103, 110], [104, 99], [105, 106], [106, 100], [107, 104], [108, 102], [109, 113], [110, 117], [111, 107], [112, 111], [113, 114], [114, 119], [115, 127], [116, 118], [117, 108], [118, 112], [119, 122], [120, 116], [121, 125], [122, 126], [123, 140], [124, 131], [125, 120], [126, 130], [127, 121], [128, 124], [129, 123], [130, 132], [131, 128], [132, 133], [133, 134], [134, 136], [135, 144], [136, 135], [137, 129], [138, 64], [139, 137], [140, 152], [141, 139], [142, 150], [143, 141], [144, 145], [145, 146], [146, 147], [147, 149], [148, 138], [149, 143], [150, 156], [151, 153], [152, 163], [153, 158], [154, 148], [155, 165], [156, 164], [157, 142], [158, 151], [159, 155], [160, 154], [161, 159], [162, 160], [163, 167], [164, 157], [165, 166], [166, 161], [167, 186], [168, 171], [169, 162], [170, 169], [171, 181], [172, 170], [173, 175], [174, 180], [175, 174], [176, 195], [177, 225], [178, 184], [179, 173], [180, 172], [181, 196], [182, 176], [183, 168], [184, 188], [185, 193], [186, 190], [187, 192], [188, 185], [189, 200], [190, 191], [191, 187], [192, 194], [193, 179], [194, 198], [195, 182], [196, 197], [197, 178], [198, 204], [199, 203], [200, 208], [201, 183], [202, 201], [203, 206], [204, 199], [205, 210], [206, 202], [207, 205], [208, 215], [209, 224], [210, 207], [211, 212], [212, 216], [213, 177], [214, 217], [215, 209], [216, 211], [217, 222], [218, 219], [219, 220], [220, 218], [221, 214], [222, 230], [223, 20], [224, 234], [225, 213], [226, 232], [227, 228], [228, 233], [229, 221], [230, 240], [231, 238], [232, 237], [233, 227], [234, 223], [235, 229], [236, 231], [237, 226], [238, 253], [239, 276], [240, 266], [241, 242], [242, 255], [243, 244], [244, 245], [245, 246], [246, 247], [247, 248], [248, 249], [249, 250], [250, 263], [251, 236], [252, 251], [253, 264], [254, 239], [255, 241], [256, 243], [257, 256], [258, 257], [259, 258], [260, 259], [261, 260], [262, 261], [263, 262], [264, 252], [265, 300], [266, 270], [267, 254], [268, 265], [269, 274], [270, 272], [271, 235], [272, 277], [273, 269], [274, 273], [275, 271], [276, 304], [277, 298], [278, 279], [279, 280], [280, 281], [281, 282], [282, 283], [283, 293], [284, 285], [285, 286], [286, 299], [287, 301], [288, 278], [289, 308], [290, 289], [291, 290], [292, 291], [293, 292], [294, 295], [295, 284], [296, 275], [297, 267], [298, 309], [299, 310], [300, 268], [301, 314], [302, 307], [303, 317], [304, 297], [305, 288], [306, 287], [307, 318], [308, 313], [309, 303], [310, 302], [311, 294], [312, 311], [313, 326], [314, 327], [315, 306], [316, 296], [317, 329], [318, 330], [319, 315], [320, 305], [321, 312], [322, 336], [323, 335], [324, 316], [325, 344], [326, 337], [327, 338], [328, 321], [329, 322], [330, 323], [331, 319], [332, 320], [333, 325], [334, 371], [335, 350], [336, 342], [337, 352], [338, 353], [339, 355], [340, 324], [341, 333], [342, 356], [343, 339], [344, 341], [345, 332], [346, 331], [347, 346], [348, 357], [349, 348], [350, 362], [351, 340], [352, 364], [353, 365], [354, 343], [355, 374], [356, 367], [357, 351], [358, 328], [359, 345], [360, 372], [361, 334], [362, 375], [363, 349], [364, 377], [365, 360], [366, 354], [367, 380], [368, 369], [369, 370], [370, 368], [371, 347], [372, 383], [373, 359], [374, 358], [375, 387], [376, 363], [377, 392], [378, 393], [379, 366], [380, 395], [381, 397], [382, 373], [383, 378], [384, 391], [385, 407], [386, 379], [387, 409], [388, 376], [389, 396], [390, 381], [391, 398], [392, 385], [393, 400], [394, 427], [395, 408], [396, 410], [397, 390], [398, 25], [399, 382], [400, 420], [401, 386], [402, 401], [403, 402], [404, 403], [405, 404], [406, 405], [407, 406], [408, 388], [409, 419], [410, 389], [411, 399], [412, 411], [413, 412], [414, 413], [415, 414], [416, 415], [417, 416], [418, 417], [419, 418], [420, 425], [421, 384], [422, 421], [423, 431], [424, 423], [425, 429], [426, 394], [427, 489], [428, 24], [429, 488], [430, 442], [431, 430], [432, 424], [433, 446], [434, 433], [435, 434], [436, 448], [437, 436], [438, 451], [439, 438], [440, 439], [441, 454], [442, 457], [443, 432], [444, 458], [445, 444], [446, 445], [447, 435], [448, 447], [449, 437], [450, 482], [451, 450], [452, 440], [453, 452], [454, 453], [455, 441], [456, 428], [457, 460], [458, 459], [459, 443], [460, 461], [461, 463], [462, 464], [463, 465], [464, 466], [465, 462], [466, 467], [467, 468], [468, 469], [469, 470], [470, 471], [471, 472], [472, 480], [473, 474], [474, 475], [475, 478], [476, 473], [477, 476], [478, 481], [479, 477], [480, 479], [481, 483], [482, 449], [483, 492], [484, 486], [485, 455], [486, 487], [487, 484], [488, 485], [489, 426], [490, 361], [491, 490], [492, 491]]
A Solution was found
Objective value: 33107.6
Problem solved in 7039 iterations
Problem solved in 65 nodes
Final Route Configuration succesfully created at:
data/routes/d493.csv
